TInc = 1;
TMax_hours = 8;
TMax_minutes = 0;

% subjective setup
NSubjective = 3;
subj_minutes = [20, 20, 20];

% performance setup
NRounds = 3;
NTables = 6;

% judging groups
NGroups = 7;
group_counts = [10, 10, 10, 9, 9, 13, 13]

alpha_perf_minutes = 6;

ct_minutes = 15;
pct_minutes = 45;
